sat
( (a_init 0)
  (b_init (- 1))
  (bm_init 3)
  (am_init 5)
  (c_0 (- 2))
  (c_1 0)
  (c_2 (- 1))
  (c_3 3)
  (c_4 5)
  (c_5 0)
  (c_6 0)
  (c_7 0)
  (c_8 (- 2))
  (c_9 0)
  (c_10 0)
  (c_11 2)
  (c_12 0)
  (c_13 0)
  (c_14 0)
  (c_15 (- 2))
  (c_16 0)
  (c_17 2)
  (c_18 0)
  (c_19 (- 2)) )
